p col 200 3000
e 1 2
e 1 3
e 1 133
e 1 7
e 1 139
e 1 15
e 1 144
e 1 23
e 1 169
e 1 173
e 1 49
e 1 179
e 1 180
e 1 53
e 1 57
e 1 62
e 1 64
e 1 69
e 1 75
e 1 76
e 1 83
e 1 85
e 1 88
e 1 94
e 1 96
e 1 100
e 1 103
e 1 190
e 1 121
e 2 131
e 2 134
e 2 7
e 2 137
e 2 138
e 2 13
e 2 150
e 2 151
e 2 154
e 2 155
e 2 28
e 2 29
e 2 159
e 2 6
e 2 168
e 2 44
e 2 45
e 2 178
e 2 51
e 2 173
e 2 182
e 2 58
e 2 193
e 2 141
e 2 90
e 2 101
e 2 102
e 2 103
e 2 106
e 2 108
e 2 124
e 2 126
e 3 4
e 3 9
e 3 138
e 3 12
e 3 146
e 3 26
e 3 30
e 3 31
e 3 35
e 3 36
e 3 165
e 3 171
e 3 44
e 3 158
e 3 182
e 3 57
e 3 188
e 3 189
e 3 78
e 3 79
e 3 81
e 3 83
e 3 90
e 3 92
e 3 93
e 3 96
e 3 103
e 3 105
e 3 110
e 3 124
e 3 125
e 4 132
e 4 137
e 4 140
e 4 143
e 4 18
e 4 148
e 4 24
e 4 160
e 4 165
e 4 41
e 4 42
e 4 173
e 4 47
e 4 50
e 4 185
e 4 188
e 4 152
e 4 63
e 4 64
e 4 193
e 4 198
e 4 71
e 4 84
e 4 85
e 4 104
e 4 109
e 4 113
e 4 122
e 5 133
e 5 134
e 5 138
e 5 139
e 5 12
e 5 14
e 5 15
e 5 16
e 5 145
e 5 20
e 5 22
e 5 152
e 5 159
e 5 32
e 5 161
e 5 41
e 5 45
e 5 46
e 5 175
e 5 50
e 5 180
e 5 57
e 5 186
e 5 190
e 5 66
e 5 69
e 5 71
e 5 72
e 5 73
e 5 75
e 5 77
e 5 185
e 5 103
e 5 113
e 5 118
e 5 121
e 5 124
e 6 132
e 6 10
e 6 14
e 6 25
e 6 28
e 6 30
e 6 32
e 6 161
e 6 36
e 6 37
e 6 38
e 6 168
e 6 49
e 6 54
e 6 184
e 6 187
e 6 188
e 6 62
e 6 70
e 6 73
e 6 76
e 6 82
e 6 83
e 6 85
e 6 86
e 6 90
e 6 93
e 6 95
e 6 166
e 6 113
e 6 115
e 6 128
e 7 151
e 7 130
e 7 9
e 7 16
e 7 148
e 7 22
e 7 23
e 7 159
e 7 34
e 7 36
e 7 169
e 7 172
e 7 176
e 7 54
e 7 56
e 7 59
e 7 60
e 7 65
e 7 77
e 7 78
e 7 79
e 7 83
e 7 91
e 7 105
e 7 109
e 7 110
e 7 115
e 8 129
e 8 172
e 8 140
e 8 13
e 8 145
e 8 25
e 8 155
e 8 158
e 8 36
e 8 166
e 8 170
e 8 44
e 8 173
e 8 50
e 8 51
e 8 189
e 8 63
e 8 193
e 8 71
e 8 72
e 8 79
e 8 90
e 8 116
e 8 118
e 8 124
e 8 128
e 9 130
e 9 136
e 9 145
e 9 157
e 9 161
e 9 162
e 9 37
e 9 169
e 9 47
e 9 178
e 9 182
e 9 184
e 9 60
e 9 67
e 9 93
e 9 96
e 9 99
e 9 102
e 9 112
e 9 118
e 9 124
e 10 130
e 10 134
e 10 136
e 10 11
e 10 14
e 10 15
e 10 16
e 10 146
e 10 22
e 10 154
e 10 28
e 10 30
e 10 161
e 10 194
e 10 47
e 10 158
e 10 177
e 10 190
e 10 187
e 10 160
e 10 139
e 10 64
e 10 66
e 10 68
e 10 142
e 10 143
e 10 104
e 10 112
e 10 123
e 10 125
e 10 128
e 11 132
e 11 133
e 11 137
e 11 140
e 11 14
e 11 17
e 11 19
e 11 153
e 11 34
e 11 163
e 11 36
e 11 44
e 11 175
e 11 179
e 11 180
e 11 60
e 11 193
e 11 196
e 11 71
e 11 75
e 11 82
e 11 164
e 11 86
e 11 87
e 11 88
e 11 89
e 11 92
e 11 98
e 11 100
e 11 101
e 11 108
e 11 112
e 11 128
e 12 132
e 12 145
e 12 153
e 12 133
e 12 176
e 12 157
e 12 33
e 12 165
e 12 173
e 12 47
e 12 48
e 12 181
e 12 189
e 12 190
e 12 68
e 12 198
e 12 71
e 12 200
e 12 73
e 12 78
e 12 88
e 12 91
e 12 95
e 12 111
e 12 114
e 12 116
e 12 120
e 13 129
e 13 137
e 13 18
e 13 22
e 13 154
e 13 28
e 13 38
e 13 40
e 13 41
e 13 47
e 13 48
e 13 178
e 13 51
e 13 53
e 13 54
e 13 184
e 13 57
e 13 181
e 13 62
e 13 196
e 13 69
e 13 75
e 13 77
e 13 81
e 13 84
e 13 85
e 13 99
e 13 104
e 13 168
e 13 109
e 13 115
e 13 126
e 14 142
e 14 145
e 14 151
e 14 24
e 14 153
e 14 154
e 14 157
e 14 160
e 14 35
e 14 165
e 14 199
e 14 169
e 14 170
e 14 173
e 14 46
e 14 55
e 14 57
e 14 58
e 14 191
e 14 69
e 14 71
e 14 76
e 14 81
e 14 88
e 14 90
e 14 97
e 14 101
e 14 105
e 14 112
e 14 116
e 14 121
e 14 122
e 14 127
e 15 132
e 15 134
e 15 139
e 15 142
e 15 144
e 15 23
e 15 25
e 15 157
e 15 42
e 15 46
e 15 49
e 15 182
e 15 55
e 15 56
e 15 186
e 15 187
e 15 192
e 15 195
e 15 91
e 15 99
e 15 101
e 15 109
e 15 114
e 15 117
e 16 140
e 16 17
e 16 150
e 16 152
e 16 153
e 16 158
e 16 31
e 16 160
e 16 34
e 16 39
e 16 40
e 16 44
e 16 173
e 16 175
e 16 48
e 16 49
e 16 56
e 16 73
e 16 74
e 16 82
e 16 90
e 16 91
e 16 94
e 16 95
e 16 100
e 16 103
e 16 104
e 16 109
e 16 118
e 16 124
e 17 129
e 17 134
e 17 147
e 17 153
e 17 28
e 17 170
e 17 46
e 17 49
e 17 179
e 17 53
e 17 182
e 17 59
e 17 62
e 17 63
e 17 198
e 17 72
e 17 73
e 17 77
e 17 81
e 17 85
e 17 93
e 17 187
e 17 97
e 17 99
e 17 106
e 17 109
e 17 191
e 17 120
e 18 134
e 18 132
e 18 26
e 18 155
e 18 156
e 18 161
e 18 37
e 18 167
e 18 41
e 18 43
e 18 172
e 18 45
e 18 53
e 18 184
e 18 185
e 18 189
e 18 192
e 18 65
e 18 195
e 18 198
e 18 74
e 18 77
e 18 89
e 18 95
e 18 99
e 18 101
e 18 117
e 18 126
e 19 130
e 19 132
e 19 134
e 19 144
e 19 153
e 19 147
e 19 21
e 19 22
e 19 152
e 19 25
e 19 197
e 19 158
e 19 36
e 19 42
e 19 171
e 19 45
e 19 46
e 19 53
e 19 58
e 19 60
e 19 189
e 19 69
e 19 199
e 19 200
e 19 75
e 19 81
e 19 174
e 19 100
e 19 102
e 19 104
e 19 107
e 19 109
e 19 112
e 19 116
e 19 119
e 19 122
e 19 123
e 19 150
e 20 141
e 20 196
e 20 23
e 20 25
e 20 155
e 20 29
e 20 36
e 20 41
e 20 171
e 20 174
e 20 175
e 20 179
e 20 57
e 20 187
e 20 62
e 20 64
e 20 193
e 20 66
e 20 67
e 20 68
e 20 75
e 20 88
e 20 94
e 20 100
e 20 101
e 20 105
e 20 106
e 20 115
e 20 116
e 20 124
e 21 132
e 21 152
e 21 142
e 21 196
e 21 24
e 21 197
e 21 177
e 21 36
e 21 37
e 21 166
e 21 39
e 21 168
e 21 169
e 21 42
e 21 43
e 21 48
e 21 49
e 21 179
e 21 53
e 21 181
e 21 60
e 21 192
e 21 68
e 21 69
e 21 78
e 21 81
e 21 85
e 21 88
e 21 93
e 21 95
e 21 102
e 21 120
e 21 167
e 22 136
e 22 142
e 22 25
e 22 197
e 22 29
e 22 163
e 22 42
e 22 173
e 22 48
e 22 54
e 22 183
e 22 190
e 22 63
e 22 69
e 22 71
e 22 72
e 22 95
e 22 96
e 22 97
e 22 101
e 22 103
e 22 109
e 22 147
e 22 115
e 22 118
e 22 123
e 22 127
e 23 136
e 23 137
e 23 142
e 23 145
e 23 146
e 23 151
e 23 24
e 23 155
e 23 156
e 23 157
e 23 30
e 23 31
e 23 160
e 23 33
e 23 34
e 23 37
e 23 167
e 23 40
e 23 171
e 23 44
e 23 45
e 23 54
e 23 55
e 23 186
e 23 61
e 23 67
e 23 196
e 23 159
e 23 78
e 23 81
e 23 89
e 23 94
e 23 97
e 23 100
e 23 109
e 23 117
e 23 124
e 23 128
e 24 135
e 24 136
e 24 137
e 24 144
e 24 150
e 24 27
e 24 161
e 24 39
e 24 40
e 24 170
e 24 173
e 24 52
e 24 53
e 24 183
e 24 185
e 24 191
e 24 196
e 24 76
e 24 142
e 24 86
e 24 93
e 24 95
e 24 115
e 24 127
e 25 131
e 25 173
e 25 144
e 25 180
e 25 160
e 25 35
e 25 37
e 25 167
e 25 45
e 25 177
e 25 52
e 25 181
e 25 191
e 25 194
e 25 67
e 25 196
e 25 69
e 25 200
e 25 73
e 25 75
e 25 143
e 25 88
e 25 89
e 25 165
e 25 95
e 25 96
e 25 108
e 25 110
e 25 121
e 25 124
e 25 126
e 26 193
e 26 149
e 26 158
e 26 39
e 26 41
e 26 170
e 26 172
e 26 45
e 26 47
e 26 48
e 26 52
e 26 53
e 26 185
e 26 60
e 26 61
e 26 65
e 26 200
e 26 84
e 26 87
e 26 88
e 26 96
e 26 101
e 26 107
e 27 129
e 27 193
e 27 144
e 27 152
e 27 29
e 27 31
e 27 178
e 27 41
e 27 170
e 27 45
e 27 50
e 27 180
e 27 57
e 27 60
e 27 63
e 27 65
e 27 74
e 27 87
e 27 90
e 27 91
e 27 92
e 27 97
e 27 105
e 27 112
e 28 137
e 28 151
e 28 29
e 28 30
e 28 40
e 28 169
e 28 44
e 28 47
e 28 176
e 28 56
e 28 185
e 28 59
e 28 189
e 28 62
e 28 64
e 28 195
e 28 141
e 28 89
e 28 93
e 28 187
e 28 95
e 28 145
e 28 103
e 28 105
e 28 117
e 28 120
e 28 127
e 29 134
e 29 155
e 29 33
e 29 36
e 29 168
e 29 41
e 29 177
e 29 50
e 29 56
e 29 58
e 29 61
e 29 190
e 29 193
e 29 161
e 29 195
e 29 178
e 29 76
e 29 79
e 29 81
e 29 85
e 29 89
e 29 90
e 29 93
e 29 94
e 29 98
e 29 104
e 29 169
e 29 118
e 30 130
e 30 139
e 30 149
e 30 153
e 30 180
e 30 156
e 30 37
e 30 48
e 30 178
e 30 52
e 30 181
e 30 54
e 30 186
e 30 73
e 30 81
e 30 83
e 30 88
e 30 103
e 30 108
e 30 120
e 30 123
e 30 126
e 31 129
e 31 142
e 31 161
e 31 162
e 31 36
e 31 41
e 31 42
e 31 179
e 31 182
e 31 58
e 31 169
e 31 192
e 31 65
e 31 197
e 31 74
e 31 83
e 31 186
e 31 92
e 31 93
e 31 94
e 31 111
e 31 112
e 31 114
e 31 115
e 31 127
e 32 66
e 32 35
e 32 164
e 32 39
e 32 73
e 32 108
e 32 67
e 32 79
e 32 50
e 32 115
e 32 175
e 32 186
e 32 153
e 32 69
e 32 137
e 32 157
e 32 158
e 32 191
e 33 130
e 33 140
e 33 150
e 33 151
e 33 152
e 33 37
e 33 41
e 33 172
e 33 175
e 33 178
e 33 51
e 33 52
e 33 182
e 33 183
e 33 63
e 33 192
e 33 66
e 33 74
e 33 90
e 33 99
e 33 104
e 33 109
e 33 126
e 34 163
e 34 133
e 34 138
e 34 109
e 34 78
e 34 113
e 34 149
e 34 86
e 34 171
e 34 165
e 34 43
e 34 159
e 35 130
e 35 134
e 35 135
e 35 138
e 35 139
e 35 156
e 35 159
e 35 161
e 35 36
e 35 37
e 35 40
e 35 43
e 35 174
e 35 48
e 35 53
e 35 55
e 35 181
e 35 160
e 35 189
e 35 62
e 35 176
e 35 165
e 35 198
e 35 73
e 35 75
e 35 142
e 35 83
e 35 90
e 35 96
e 35 100
e 35 106
e 35 113
e 35 188
e 35 118
e 35 119
e 35 124
e 36 132
e 36 151
e 36 154
e 36 164
e 36 167
e 36 168
e 36 169
e 36 171
e 36 136
e 36 45
e 36 174
e 36 47
e 36 177
e 36 180
e 36 182
e 36 55
e 36 185
e 36 59
e 36 60
e 36 189
e 36 191
e 36 66
e 36 195
e 36 199
e 36 76
e 36 86
e 36 94
e 36 106
e 36 114
e 36 118
e 36 121
e 36 122
e 36 124
e 36 125
e 37 130
e 37 154
e 37 156
e 37 151
e 37 160
e 37 39
e 37 158
e 37 59
e 37 189
e 37 63
e 37 195
e 37 153
e 37 70
e 37 73
e 37 81
e 37 88
e 37 91
e 37 94
e 37 104
e 37 105
e 37 111
e 37 149
e 37 123
e 38 129
e 38 139
e 38 149
e 38 153
e 38 156
e 38 157
e 38 159
e 38 39
e 38 42
e 38 171
e 38 44
e 38 174
e 38 177
e 38 59
e 38 62
e 38 64
e 38 193
e 38 66
e 38 77
e 38 90
e 38 99
e 38 101
e 38 103
e 38 104
e 38 105
e 38 190
e 38 119
e 38 122
e 38 125
e 39 136
e 39 140
e 39 145
e 39 147
e 39 155
e 39 163
e 39 41
e 39 170
e 39 171
e 39 44
e 39 173
e 39 175
e 39 52
e 39 55
e 39 59
e 39 60
e 39 61
e 39 192
e 39 67
e 39 70
e 39 199
e 39 73
e 39 76
e 39 188
e 39 107
e 39 109
e 39 117
e 39 118
e 39 123
e 39 126
e 40 129
e 40 172
e 40 138
e 40 147
e 40 149
e 40 155
e 40 162
e 40 165
e 40 41
e 40 170
e 40 43
e 40 44
e 40 50
e 40 185
e 40 58
e 40 59
e 40 64
e 40 73
e 40 78
e 40 186
e 40 90
e 40 95
e 40 100
e 40 123
e 41 129
e 41 133
e 41 134
e 41 144
e 41 152
e 41 157
e 41 171
e 41 178
e 41 58
e 41 62
e 41 191
e 41 195
e 41 68
e 41 199
e 41 73
e 41 78
e 41 79
e 41 81
e 41 84
e 41 85
e 41 186
e 41 93
e 41 101
e 41 104
e 41 114
e 41 119
e 42 129
e 42 130
e 42 134
e 42 144
e 42 132
e 42 162
e 42 167
e 42 171
e 42 173
e 42 175
e 42 183
e 42 57
e 42 196
e 42 197
e 42 80
e 42 86
e 42 88
e 42 100
e 42 101
e 42 108
e 42 112
e 42 115
e 42 128
e 43 133
e 43 135
e 43 140
e 43 143
e 43 156
e 43 160
e 43 164
e 43 172
e 43 45
e 43 47
e 43 48
e 43 52
e 43 56
e 43 61
e 43 190
e 43 71
e 43 72
e 43 74
e 43 75
e 43 80
e 43 92
e 43 93
e 43 98
e 43 121
e 43 126
e 44 141
e 44 145
e 44 162
e 44 169
e 44 172
e 44 175
e 44 179
e 44 182
e 44 58
e 44 59
e 44 199
e 44 71
e 44 74
e 44 79
e 44 80
e 44 83
e 44 186
e 44 166
e 44 100
e 44 105
e 44 107
e 44 111
e 44 114
e 44 118
e 44 119
e 44 122
e 44 127
e 45 130
e 45 142
e 45 197
e 45 47
e 45 176
e 45 61
e 45 196
e 45 69
e 45 198
e 45 199
e 45 72
e 45 81
e 45 83
e 45 87
e 45 153
e 45 99
e 45 101
e 45 105
e 45 109
e 45 147
e 45 113
e 45 120
e 45 123
e 46 131
e 46 140
e 46 148
e 46 159
e 46 176
e 46 182
e 46 183
e 46 187
e 46 189
e 46 64
e 46 67
e 46 197
e 46 71
e 46 76
e 46 77
e 46 84
e 46 143
e 46 88
e 46 91
e 46 93
e 46 94
e 46 95
e 46 96
e 46 102
e 46 103
e 46 108
e 46 120
e 46 123
e 47 149
e 47 153
e 47 168
e 47 177
e 47 50
e 47 63
e 47 66
e 47 67
e 47 140
e 47 73
e 47 84
e 47 87
e 47 100
e 47 108
e 47 118
e 47 120
e 47 137
e 48 131
e 48 133
e 48 134
e 48 137
e 48 154
e 48 153
e 48 180
e 48 157
e 48 162
e 48 166
e 48 168
e 48 173
e 48 177
e 48 179
e 48 52
e 48 181
e 48 184
e 48 58
e 48 191
e 48 163
e 48 80
e 48 98
e 48 109
e 48 112
e 48 117
e 48 118
e 48 121
e 48 124
e 49 131
e 49 135
e 49 150
e 49 151
e 49 153
e 49 157
e 49 161
e 49 162
e 49 167
e 49 170
e 49 171
e 49 55
e 49 66
e 49 68
e 49 91
e 49 99
e 49 100
e 49 101
e 49 105
e 49 111
e 49 115
e 49 125
e 50 129
e 50 131
e 50 150
e 50 154
e 50 133
e 50 156
e 50 157
e 50 173
e 50 177
e 50 190
e 50 64
e 50 199
e 50 72
e 50 75
e 50 89
e 50 95
e 50 96
e 50 98
e 50 101
e 50 168
e 50 112
e 50 117
e 50 119
e 50 120
e 50 121
e 50 192
e 51 139
e 51 144
e 51 149
e 51 175
e 51 178
e 51 53
e 51 54
e 51 184
e 51 185
e 51 62
e 51 192
e 51 194
e 51 56
e 51 84
e 51 99
e 51 104
e 51 108
e 51 110
e 51 120
e 52 130
e 52 139
e 52 152
e 52 145
e 52 153
e 52 147
e 52 155
e 52 170
e 52 173
e 52 175
e 52 53
e 52 188
e 52 69
e 52 87
e 52 90
e 52 91
e 52 93
e 52 101
e 52 104
e 52 113
e 52 114
e 52 119
e 52 121
e 52 126
e 53 129
e 53 136
e 53 167
e 53 173
e 53 175
e 53 181
e 53 182
e 53 186
e 53 190
e 53 64
e 53 200
e 53 89
e 53 91
e 53 118
e 53 119
e 53 154
e 53 123
e 54 146
e 54 157
e 54 179
e 54 178
e 54 63
e 54 74
e 54 79
e 54 83
e 54 85
e 54 97
e 54 101
e 54 102
e 54 105
e 54 108
e 54 112
e 54 116
e 55 145
e 55 148
e 55 160
e 55 161
e 55 162
e 55 165
e 55 172
e 55 176
e 55 178
e 55 189
e 55 193
e 55 198
e 55 72
e 55 79
e 55 80
e 55 82
e 55 164
e 55 88
e 55 108
e 55 110
e 55 112
e 55 118
e 55 124
e 55 126
e 56 132
e 56 179
e 56 156
e 56 174
e 56 186
e 56 61
e 56 73
e 56 80
e 56 88
e 56 98
e 56 100
e 56 101
e 56 104
e 56 105
e 56 109
e 56 111
e 56 116
e 56 171
e 57 193
e 57 137
e 57 145
e 57 146
e 57 156
e 57 157
e 57 159
e 57 161
e 57 162
e 57 164
e 57 172
e 57 59
e 57 65
e 57 67
e 57 78
e 57 95
e 57 103
e 57 107
e 57 111
e 57 118
e 57 128
e 58 110
e 58 145
e 58 146
e 58 147
e 58 198
e 58 161
e 58 171
e 58 183
e 58 61
e 58 196
e 58 70
e 58 200
e 58 76
e 58 77
e 58 93
e 58 98
e 59 129
e 59 193
e 59 141
e 59 143
e 59 146
e 59 151
e 59 153
e 59 160
e 59 161
e 59 175
e 59 177
e 59 178
e 59 181
e 59 189
e 59 190
e 59 63
e 59 65
e 59 194
e 59 200
e 59 80
e 59 86
e 59 165
e 59 102
e 59 168
e 59 119
e 59 120
e 59 167
e 60 133
e 60 138
e 60 146
e 60 150
e 60 165
e 60 172
e 60 173
e 60 178
e 60 180
e 60 186
e 60 61
e 60 62
e 60 191
e 60 68
e 60 72
e 60 74
e 60 77
e 60 78
e 60 81
e 60 101
e 60 189
e 61 139
e 61 155
e 61 165
e 61 192
e 61 193
e 61 66
e 61 195
e 61 197
e 61 200
e 61 73
e 61 79
e 61 86
e 61 87
e 61 90
e 61 99
e 61 101
e 61 111
e 61 114
e 62 163
e 62 137
e 62 138
e 62 142
e 62 157
e 62 160
e 62 162
e 62 167
e 62 182
e 62 64
e 62 65
e 62 66
e 62 198
e 62 78
e 62 83
e 62 85
e 62 90
e 62 95
e 62 113
e 62 116
e 62 117
e 63 129
e 63 138
e 63 143
e 63 132
e 63 152
e 63 153
e 63 136
e 63 184
e 63 185
e 63 191
e 63 182
e 63 65
e 63 195
e 63 199
e 63 72
e 63 81
e 63 82
e 63 83
e 63 90
e 63 105
e 63 115
e 63 119
e 64 143
e 64 154
e 64 159
e 64 161
e 64 163
e 64 182
e 64 189
e 64 192
e 64 194
e 64 69
e 64 72
e 64 79
e 64 85
e 64 102
e 64 103
e 64 106
e 64 111
e 64 125
e 65 144
e 65 145
e 65 158
e 65 159
e 65 163
e 65 177
e 65 186
e 65 189
e 65 84
e 65 87
e 65 97
e 65 100
e 65 110
e 65 114
e 65 117
e 66 136
e 66 139
e 66 141
e 66 150
e 66 163
e 66 169
e 66 170
e 66 173
e 66 182
e 66 183
e 66 138
e 66 188
e 66 197
e 66 199
e 66 73
e 66 74
e 66 184
e 66 80
e 66 164
e 66 86
e 66 91
e 66 104
e 66 106
e 66 108
e 66 111
e 66 119
e 66 123
e 66 127
e 67 137
e 67 141
e 67 142
e 67 145
e 67 147
e 67 148
e 67 152
e 67 182
e 67 69
e 67 198
e 67 79
e 67 94
e 67 104
e 67 107
e 67 119
e 67 123
e 68 148
e 68 154
e 68 160
e 68 165
e 68 174
e 68 179
e 68 138
e 68 195
e 68 70
e 68 78
e 68 83
e 68 89
e 68 93
e 68 95
e 68 99
e 68 108
e 68 128
e 69 139
e 69 133
e 69 166
e 69 167
e 69 199
e 69 200
e 69 76
e 69 77
e 69 83
e 69 91
e 69 105
e 69 115
e 69 116
e 69 120
e 69 149
e 69 192
e 70 137
e 70 139
e 70 151
e 70 156
e 70 166
e 70 168
e 70 183
e 70 185
e 70 192
e 70 76
e 70 79
e 70 81
e 70 84
e 70 85
e 70 165
e 70 92
e 70 93
e 70 96
e 70 100
e 70 107
e 70 111
e 70 127
e 71 141
e 71 143
e 71 145
e 71 146
e 71 132
e 71 162
e 71 179
e 71 180
e 71 140
e 71 72
e 71 89
e 71 93
e 71 95
e 71 104
e 71 105
e 71 118
e 72 135
e 72 138
e 72 141
e 72 149
e 72 155
e 72 161
e 72 174
e 72 193
e 72 200
e 72 77
e 72 87
e 72 88
e 72 89
e 72 95
e 72 98
e 72 99
e 72 102
e 72 109
e 72 115
e 72 122
e 72 192
e 72 150
e 73 130
e 73 132
e 73 151
e 73 182
e 73 193
e 73 77
e 73 81
e 73 82
e 73 85
e 73 86
e 73 145
e 73 104
e 73 116
e 73 117
e 73 120
e 73 128
e 74 129
e 74 137
e 74 145
e 74 147
e 74 151
e 74 155
e 74 168
e 74 185
e 74 187
e 74 199
e 74 76
e 74 77
e 74 96
e 74 97
e 74 99
e 74 100
e 74 102
e 74 107
e 74 115
e 74 188
e 74 161
e 74 124
e 75 129
e 75 134
e 75 135
e 75 136
e 75 137
e 75 143
e 75 146
e 75 133
e 75 162
e 75 165
e 75 193
e 75 195
e 75 200
e 75 83
e 75 125
e 76 131
e 76 135
e 76 136
e 76 174
e 76 150
e 76 153
e 76 159
e 76 168
e 76 184
e 76 196
e 76 86
e 76 101
e 76 104
e 76 107
e 76 115
e 76 127
e 77 139
e 77 142
e 77 165
e 77 170
e 77 176
e 77 182
e 77 184
e 77 195
e 77 82
e 77 83
e 77 85
e 77 86
e 77 98
e 77 111
e 77 125
e 77 128
e 78 132
e 78 142
e 78 144
e 78 159
e 78 161
e 78 176
e 78 177
e 78 178
e 78 195
e 78 82
e 78 86
e 78 89
e 78 97
e 78 188
e 78 105
e 78 107
e 78 190
e 78 113
e 78 118
e 78 128
e 79 147
e 79 154
e 79 155
e 79 161
e 79 135
e 79 195
e 79 82
e 79 111
e 79 127
e 80 133
e 80 149
e 80 151
e 80 154
e 80 155
e 80 158
e 80 163
e 80 166
e 80 175
e 80 179
e 80 182
e 80 185
e 80 184
e 80 95
e 80 108
e 80 114
e 80 117
e 80 171
e 81 132
e 81 133
e 81 144
e 81 154
e 81 155
e 81 156
e 81 160
e 81 167
e 81 170
e 81 158
e 81 183
e 81 194
e 81 195
e 81 199
e 81 89
e 81 90
e 81 97
e 81 145
e 81 101
e 81 104
e 81 108
e 81 169
e 81 115
e 81 128
e 82 129
e 82 141
e 82 145
e 82 146
e 82 152
e 82 161
e 82 163
e 82 168
e 82 177
e 82 180
e 82 184
e 82 187
e 82 139
e 82 199
e 82 85
e 82 86
e 82 92
e 82 99
e 82 107
e 82 112
e 82 125
e 83 144
e 83 150
e 83 158
e 83 134
e 83 162
e 83 181
e 83 186
e 83 160
e 83 182
e 83 195
e 83 91
e 83 188
e 83 119
e 83 192
e 84 192
e 84 109
e 84 146
e 84 132
e 84 117
e 84 150
e 84 119
e 84 115
e 84 124
e 84 155
e 84 182
e 85 129
e 85 131
e 85 135
e 85 139
e 85 132
e 85 158
e 85 160
e 85 198
e 85 165
e 85 171
e 85 186
e 85 193
e 85 196
e 85 94
e 85 97
e 85 105
e 85 116
e 85 122
e 85 124
e 86 136
e 86 143
e 86 147
e 86 189
e 86 159
e 86 167
e 86 168
e 86 172
e 86 173
e 86 178
e 86 181
e 86 188
e 86 192
e 86 196
e 86 197
e 86 162
e 86 87
e 86 187
e 86 93
e 86 94
e 86 200
e 86 100
e 86 102
e 86 106
e 86 110
e 86 115
e 86 121
e 87 130
e 87 153
e 87 159
e 87 170
e 87 181
e 87 184
e 87 188
e 87 189
e 87 107
e 87 111
e 87 112
e 87 125
e 88 136
e 88 145
e 88 147
e 88 155
e 88 160
e 88 163
e 88 166
e 88 172
e 88 182
e 88 191
e 88 193
e 88 199
e 88 90
e 88 115
e 88 124
e 88 126
e 88 127
e 89 138
e 89 140
e 89 164
e 89 200
e 89 173
e 89 92
e 89 93
e 89 95
e 89 100
e 89 103
e 89 109
e 89 113
e 89 115
e 89 124
e 90 129
e 90 172
e 90 141
e 90 151
e 90 158
e 90 171
e 90 136
e 90 176
e 90 186
e 90 192
e 90 194
e 90 198
e 90 189
e 90 112
e 90 116
e 91 130
e 91 137
e 91 148
e 91 149
e 91 160
e 91 176
e 91 178
e 91 183
e 91 184
e 91 185
e 91 192
e 91 198
e 91 199
e 91 174
e 91 98
e 91 104
e 91 107
e 91 114
e 91 121
e 92 143
e 92 146
e 92 151
e 92 158
e 92 163
e 92 167
e 92 168
e 92 172
e 92 187
e 92 189
e 92 96
e 92 100
e 92 101
e 92 105
e 92 112
e 92 122
e 92 127
e 93 135
e 93 150
e 93 198
e 93 166
e 93 168
e 93 177
e 93 103
e 93 117
e 93 127
e 94 132
e 94 195
e 94 148
e 94 153
e 94 158
e 94 167
e 94 187
e 94 190
e 94 107
e 94 110
e 94 114
e 94 124
e 94 127
e 95 133
e 95 138
e 95 139
e 95 141
e 95 147
e 95 151
e 95 158
e 95 164
e 95 167
e 95 169
e 95 177
e 95 181
e 95 152
e 95 194
e 95 99
e 95 105
e 95 107
e 95 109
e 95 190
e 95 116
e 96 133
e 96 146
e 96 148
e 96 155
e 96 165
e 96 168
e 96 172
e 96 175
e 96 177
e 96 185
e 96 186
e 96 188
e 96 190
e 96 192
e 96 193
e 96 197
e 96 97
e 96 108
e 96 119
e 96 120
e 97 140
e 97 146
e 97 152
e 97 156
e 97 159
e 97 171
e 97 172
e 97 175
e 97 179
e 97 185
e 97 187
e 97 98
e 97 100
e 97 107
e 97 111
e 97 113
e 97 116
e 97 120
e 97 125
e 97 150
e 98 130
e 98 143
e 98 147
e 98 152
e 98 166
e 98 168
e 98 173
e 98 174
e 98 179
e 98 183
e 98 190
e 98 191
e 98 184
e 98 107
e 98 118
e 99 133
e 99 138
e 99 154
e 99 165
e 99 168
e 99 181
e 99 192
e 99 166
e 99 105
e 99 189
e 99 141
e 99 117
e 99 122
e 100 138
e 100 153
e 100 162
e 100 178
e 100 139
e 100 196
e 100 197
e 100 200
e 100 144
e 100 147
e 100 112
e 100 116
e 100 125
e 101 134
e 101 137
e 101 155
e 101 160
e 101 183
e 101 191
e 101 194
e 101 143
e 101 104
e 101 108
e 101 169
e 101 115
e 101 116
e 101 119
e 101 121
e 102 129
e 102 139
e 102 158
e 102 159
e 102 175
e 102 137
e 102 180
e 102 182
e 102 194
e 102 195
e 102 196
e 102 198
e 102 108
e 102 116
e 102 149
e 103 185
e 103 129
e 103 145
e 103 146
e 103 147
e 103 152
e 103 153
e 103 160
e 103 165
e 103 182
e 103 184
e 103 187
e 103 195
e 103 198
e 103 174
e 103 106
e 103 109
e 103 110
e 104 129
e 104 150
e 104 138
e 104 158
e 104 185
e 104 192
e 104 193
e 104 199
e 104 166
e 104 105
e 104 147
e 104 169
e 104 118
e 104 126
e 105 129
e 105 134
e 105 159
e 105 169
e 105 176
e 105 196
e 105 108
e 105 126
e 106 132
e 106 133
e 106 145
e 106 152
e 106 158
e 106 169
e 106 175
e 106 177
e 106 190
e 106 163
e 106 107
e 106 116
e 106 117
e 107 130
e 107 138
e 107 139
e 107 195
e 107 154
e 107 198
e 107 162
e 107 163
e 107 168
e 107 173
e 107 188
e 107 191
e 107 147
e 107 194
e 107 108
e 107 110
e 107 114
e 107 115
e 108 131
e 108 133
e 108 136
e 108 137
e 108 140
e 108 147
e 108 175
e 108 155
e 108 159
e 108 162
e 108 166
e 108 169
e 108 180
e 108 188
e 108 189
e 108 123
e 108 125
e 108 127
e 109 138
e 109 146
e 109 153
e 109 158
e 109 163
e 109 172
e 109 178
e 109 182
e 109 183
e 109 192
e 109 193
e 109 194
e 109 111
e 109 113
e 109 114
e 109 117
e 110 193
e 110 133
e 110 134
e 110 137
e 110 147
e 110 150
e 110 161
e 110 135
e 110 196
e 110 115
e 110 120
e 111 129
e 111 139
e 111 145
e 111 155
e 111 162
e 111 179
e 111 187
e 111 140
e 111 200
e 111 116
e 111 123
e 111 192
e 112 130
e 112 134
e 112 144
e 112 145
e 112 146
e 112 148
e 112 153
e 112 158
e 112 166
e 112 171
e 112 175
e 112 177
e 112 189
e 112 120
e 112 125
e 113 153
e 113 166
e 113 168
e 113 169
e 113 181
e 113 192
e 113 193
e 113 115
e 113 116
e 113 118
e 113 120
e 114 172
e 114 135
e 114 139
e 114 140
e 114 144
e 114 150
e 114 154
e 114 159
e 114 117
e 114 118
e 115 136
e 115 142
e 115 145
e 115 156
e 115 158
e 115 179
e 115 159
e 115 192
e 115 117
e 116 155
e 116 159
e 116 161
e 116 187
e 116 195
e 116 142
e 116 117
e 116 120
e 116 123
e 117 130
e 117 141
e 117 145
e 117 148
e 117 162
e 117 165
e 117 168
e 117 174
e 117 186
e 117 188
e 117 196
e 117 167
e 118 134
e 118 143
e 118 149
e 118 171
e 118 189
e 118 193
e 118 185
e 118 119
e 118 120
e 118 124
e 118 150
e 119 156
e 119 159
e 119 178
e 119 172
e 119 173
e 119 176
e 119 192
e 119 126
e 120 131
e 120 137
e 120 148
e 120 150
e 120 197
e 120 164
e 120 177
e 120 180
e 120 193
e 120 145
e 120 149
e 120 122
e 120 127
e 120 128
e 121 135
e 121 137
e 121 148
e 121 152
e 121 153
e 121 154
e 121 181
e 121 192
e 121 196
e 121 197
e 121 199
e 121 142
e 121 123
e 122 130
e 122 179
e 122 138
e 122 194
e 122 142
e 122 153
e 122 180
e 122 189
e 122 198
e 123 131
e 123 132
e 123 133
e 123 134
e 123 141
e 123 150
e 123 152
e 123 171
e 123 172
e 123 182
e 123 187
e 123 191
e 123 200
e 124 132
e 124 141
e 124 142
e 124 153
e 124 150
e 124 152
e 124 156
e 124 157
e 124 167
e 124 177
e 124 184
e 124 189
e 124 193
e 124 128
e 125 134
e 125 146
e 125 151
e 125 155
e 125 157
e 125 158
e 125 174
e 125 191
e 125 195
e 125 196
e 125 127
e 126 131
e 126 147
e 126 158
e 126 168
e 126 173
e 126 176
e 126 180
e 126 191
e 126 199
e 126 153
e 127 133
e 127 135
e 127 140
e 127 159
e 127 160
e 127 163
e 127 164
e 127 180
e 127 188
e 127 191
e 127 192
e 127 199
e 127 142
e 128 145
e 128 142
e 128 184
e 128 148
e 128 188
e 128 187
e 128 158
e 129 134
e 129 135
e 129 139
e 129 143
e 129 162
e 129 181
e 129 195
e 129 178
e 129 145
e 129 141
e 130 148
e 130 150
e 130 151
e 130 154
e 130 162
e 130 172
e 130 183
e 130 184
e 130 185
e 130 188
e 130 200
e 131 161
e 131 198
e 131 137
e 131 138
e 131 158
e 131 153
e 131 170
e 132 148
e 132 164
e 132 169
e 132 173
e 132 174
e 132 178
e 132 185
e 132 186
e 132 190
e 132 146
e 133 134
e 133 146
e 133 152
e 133 157
e 133 159
e 133 164
e 133 174
e 133 177
e 133 184
e 133 186
e 133 169
e 134 136
e 134 144
e 134 155
e 134 159
e 134 167
e 134 172
e 134 174
e 134 180
e 134 193
e 134 143
e 134 145
e 135 136
e 135 161
e 135 162
e 135 165
e 135 172
e 135 176
e 135 177
e 135 183
e 135 187
e 135 189
e 135 190
e 135 192
e 135 199
e 135 200
e 136 152
e 136 162
e 136 172
e 136 173
e 136 184
e 136 192
e 137 146
e 137 182
e 137 194
e 137 185
e 138 140
e 138 143
e 138 155
e 138 157
e 138 160
e 138 161
e 138 166
e 138 170
e 138 175
e 138 179
e 138 186
e 138 192
e 138 163
e 139 146
e 139 155
e 139 156
e 139 160
e 139 162
e 139 169
e 139 191
e 139 143
e 139 166
e 140 147
e 140 150
e 140 151
e 140 152
e 140 190
e 140 191
e 140 195
e 140 200
e 141 172
e 141 146
e 141 149
e 141 151
e 141 154
e 141 165
e 141 170
e 141 179
e 141 186
e 141 191
e 141 193
e 141 197
e 141 200
e 142 151
e 142 163
e 142 144
e 142 147
e 142 157
e 142 158
e 142 160
e 142 159
e 142 183
e 142 191
e 142 198
e 142 199
e 143 145
e 143 147
e 143 153
e 143 158
e 143 162
e 143 166
e 143 183
e 143 190
e 143 199
e 143 194
e 143 196
e 143 191
e 144 148
e 144 152
e 144 166
e 144 172
e 144 181
e 144 196
e 144 199
e 145 155
e 145 157
e 145 186
e 145 182
e 145 184
e 145 195
e 146 147
e 146 148
e 146 158
e 146 159
e 146 163
e 146 167
e 146 169
e 146 170
e 146 174
e 146 178
e 146 179
e 146 189
e 146 190
e 146 182
e 146 193
e 147 151
e 147 155
e 147 159
e 147 165
e 147 189
e 147 190
e 147 194
e 147 200
e 147 167
e 148 150
e 148 151
e 148 153
e 148 162
e 148 165
e 148 182
e 148 187
e 148 183
e 149 198
e 149 197
e 149 151
e 149 192
e 149 152
e 150 154
e 150 156
e 150 157
e 150 163
e 150 168
e 150 199
e 151 155
e 151 191
e 151 196
e 152 168
e 152 184
e 152 188
e 152 169
e 153 175
e 153 163
e 153 170
e 153 195
e 153 166
e 154 160
e 154 179
e 154 180
e 154 188
e 154 194
e 154 198
e 155 160
e 155 159
e 155 191
e 155 194
e 156 160
e 156 169
e 156 198
e 156 188
e 156 191
e 156 196
e 157 184
e 157 200
e 157 166
e 158 159
e 158 171
e 158 172
e 158 188
e 158 165
e 158 199
e 159 193
e 159 165
e 159 178
e 159 182
e 159 185
e 160 162
e 160 166
e 160 173
e 160 186
e 160 189
e 160 199
e 161 177
e 161 166
e 161 168
e 161 174
e 161 179
e 161 196
e 161 183
e 161 187
e 162 172
e 162 176
e 162 177
e 162 166
e 162 180
e 162 181
e 162 187
e 162 188
e 162 191
e 162 183
e 162 185
e 163 164
e 163 171
e 163 175
e 163 191
e 163 196
e 164 199
e 164 200
e 165 198
e 165 173
e 165 191
e 165 195
e 165 197
e 165 187
e 165 188
e 166 197
e 166 178
e 166 180
e 166 184
e 166 192
e 166 194
e 166 196
e 167 171
e 167 178
e 168 180
e 168 191
e 168 192
e 168 193
e 168 195
e 168 187
e 169 172
e 169 171
e 169 175
e 169 191
e 169 192
e 169 193
e 169 195
e 169 197
e 169 199
e 169 200
e 170 194
e 170 176
e 170 179
e 170 186
e 170 188
e 170 200
e 171 172
e 171 173
e 171 175
e 171 180
e 171 181
e 171 189
e 172 180
e 172 183
e 173 174
e 173 184
e 173 181
e 173 189
e 173 192
e 173 200
e 173 186
e 174 196
e 175 178
e 175 181
e 175 191
e 175 194
e 175 187
e 176 185
e 176 189
e 176 192
e 177 193
e 177 178
e 177 196
e 178 179
e 178 185
e 178 198
e 178 188
e 179 181
e 179 188
e 179 189
e 179 200
e 180 185
e 180 187
e 180 192
e 181 184
e 181 189
e 181 190
e 183 196
e 184 196
e 184 191
e 185 189
e 185 190
e 186 193
e 187 196
e 188 192
e 189 192
e 189 191
e 189 200
e 190 197
e 191 192
e 192 194
e 193 195
e 194 198
e 194 200
e 195 198
e 198 199
e 198 200
e 199 200
